40
1 0 2
2 0 10
2 1 3
3 0 8
3 1 9
3 2 7
4 0 10
4 1 1
4 2 11
4 3 1
5 0 2
5 1 6
5 2 1
5 3 10
5 4 4
6 0 3
6 1 10
6 2 2
6 3 6
6 4 10
6 5 10
7 0 1
7 1 2
7 2 1
7 3 9
7 4 7
7 5 2
7 6 7
8 0 4
8 1 1
8 2 3
8 3 6
8 4 10
8 5 11
8 6 1
8 7 8
9 0 9
9 1 5
9 2 3
9 3 10
9 4 6
9 5 9
9 6 7
9 7 4
9 8 5
10 0 5
10 1 8
10 2 10
10 3 9
10 4 6
10 5 3
10 6 2
10 7 2
10 8 7
10 9 9
11 0 6
11 1 2
11 2 9
11 3 1
11 4 11
11 5 10
11 6 11
11 7 6
11 8 7
11 9 3
11 10 7
12 0 9
12 1 7
12 2 10
12 3 8
12 4 1
12 5 10
12 6 4
12 7 9
12 8 1
12 9 10
12 10 11
12 11 10
13 0 6
13 1 1
13 2 7
13 3 4
13 4 10
13 5 8
13 6 8
13 7 6
13 8 1
13 9 9
13 10 4
13 11 1
13 12 3
14 0 10
14 1 9
14 2 8
14 3 2
14 4 1
14 5 3
14 6 1
14 7 2
14 8 7
14 9 7
14 10 10
14 11 3
14 12 11
14 13 9
15 0 5
15 1 7
15 2 1
15 3 4
15 4 5
15 5 9
15 6 5
15 7 11
15 8 5
15 9 2
15 10 5
15 11 4
15 12 1
15 13 10
15 14 1
16 0 9
16 1 8
16 2 7
16 3 1
16 4 11
16 5 1
16 6 4
16 7 1
16 8 11
16 9 1
16 10 9
16 11 11
16 12 10
16 13 1
16 14 2
16 15 6
17 0 1
17 1 1
17 2 7
17 3 2
17 4 1
17 5 3
17 6 10
17 7 7
17 8 5
17 9 4
17 10 5
17 11 8
17 12 3
17 13 8
17 14 6
17 15 11
17 16 10
18 0 7
18 1 1
18 2 10
18 3 9
18 4 3
18 5 3
18 6 5
18 7 8
18 8 7
18 9 9
18 10 9
18 11 6
18 12 9
18 13 6
18 14 5
18 15 5
18 16 3
18 17 4
19 0 10
19 1 4
19 2 3
19 3 3
19 4 11
19 5 4
19 6 9
19 7 6
19 8 8
19 9 11
19 10 2
19 11 2
19 12 7
19 13 3
19 14 1
19 15 2
19 16 3
19 17 5
19 18 11
20 0 10
20 1 5
20 2 2
20 3 3
20 4 6
20 5 10
20 6 10
20 7 6
20 8 5
20 9 3
20 10 7
20 11 8
20 12 10
20 13 2
20 14 6
20 15 9
20 16 11
20 17 4
20 18 5
20 19 5
21 0 2
21 1 6
21 2 11
21 3 4
21 4 7
21 5 1
21 6 9
21 7 9
21 8 1
21 9 2
21 10 5
21 11 7
21 12 10
21 13 5
21 14 3
21 15 1
21 16 1
21 17 11
21 18 7
21 19 8
21 20 7
22 0 5
22 1 2
22 2 11
22 3 3
22 4 6
22 5 10
22 6 2
22 7 7
22 8 8
22 9 9
22 10 5
22 11 9
22 12 2
22 13 1
22 14 9
22 15 10
22 16 11
22 17 1
22 18 1
22 19 9
22 20 7
22 21 11
23 0 3
23 1 11
23 2 2
23 3 11
23 4 3
23 5 1
23 6 11
23 7 1
23 8 9
23 9 10
23 10 2
23 11 5
23 12 9
23 13 6
23 14 10
23 15 1
23 16 1
23 17 5
23 18 9
23 19 9
23 20 1
23 21 1
23 22 7
24 0 6
24 1 11
24 2 10
24 3 5
24 4 1
24 5 9
24 6 5
24 7 9
24 8 8
24 9 3
24 10 7
24 11 1
24 12 10
24 13 10
24 14 3
24 15 9
24 16 4
24 17 7
24 18 9
24 19 10
24 20 8
24 21 1
24 22 4
24 23 3
25 0 3
25 1 11
25 2 6
25 3 9
25 4 8
25 5 4
25 6 9
25 7 6
25 8 3
25 9 10
25 10 1
25 11 4
25 12 9
25 13 10
25 14 2
25 15 1
25 16 11
25 17 10
25 18 9
25 19 5
25 20 7
25 21 2
25 22 2
25 23 10
25 24 7
26 0 5
26 1 11
26 2 6
26 3 5
26 4 5
26 5 7
26 6 1
26 7 2
26 8 11
26 9 3
26 10 9
26 11 4
26 12 2
26 13 2
26 14 9
26 15 9
26 16 7
26 17 3
26 18 3
26 19 1
26 20 1
26 21 3
26 22 7
26 23 4
26 24 8
26 25 8
27 0 2
27 1 9
27 2 7
27 3 9
27 4 3
27 5 10
27 6 1
27 7 7
27 8 2
27 9 3
27 10 9
27 11 10
27 12 6
27 13 1
27 14 11
27 15 11
27 16 11
27 17 9
27 18 1
27 19 10
27 20 11
27 21 10
27 22 6
27 23 9
27 24 1
27 25 11
27 26 8
28 0 8
28 1 1
28 2 11
28 3 9
28 4 2
28 5 6
28 6 7
28 7 5
28 8 4
28 9 7
28 10 6
28 11 1
28 12 1
28 13 6
28 14 6
28 15 2
28 16 5
28 17 4
28 18 6
28 19 1
28 20 5
28 21 4
28 22 11
28 23 8
28 24 6
28 25 5
28 26 10
28 27 3
29 0 9
29 1 5
29 2 8
29 3 9
29 4 11
29 5 10
29 6 9
29 7 11
29 8 6
29 9 8
29 10 4
29 11 1
29 12 8
29 13 6
29 14 5
29 15 11
29 16 6
29 17 3
29 18 10
29 19 11
29 20 8
29 21 4
29 22 10
29 23 3
29 24 11
29 25 7
29 26 4
29 27 2
29 28 2
30 0 5
30 1 11
30 2 10
30 3 7
30 4 10
30 5 1
30 6 7
30 7 4
30 8 7
30 9 9
30 10 7
30 11 3
30 12 5
30 13 3
30 14 2
30 15 2
30 16 6
30 17 10
30 18 2
30 19 8
30 20 9
30 21 1
30 22 6
30 23 11
30 24 2
30 25 9
30 26 3
30 27 7
30 28 7
30 29 5
31 0 7
31 1 3
31 2 4
31 3 2
31 4 1
31 5 3
31 6 10
31 7 4
31 8 4
31 9 9
31 10 9
31 11 7
31 12 2
31 13 6
31 14 1
31 15 11
31 16 11
31 17 1
31 18 4
31 19 10
31 20 5
31 21 5
31 22 6
31 23 5
31 24 5
31 25 10
31 26 11
31 27 3
31 28 11
31 29 11
31 30 11
32 0 8
32 1 9
32 2 2
32 3 8
32 4 4
32 5 6
32 6 4
32 7 11
32 8 7
32 9 8
32 10 9
32 11 4
32 12 7
32 13 11
32 14 10
32 15 5
32 16 5
32 17 11
32 18 8
32 19 11
32 20 6
32 21 10
32 22 5
32 23 4
32 24 8
32 25 6
32 26 5
32 27 11
32 28 10
32 29 2
32 30 1
32 31 10
33 0 3
33 1 4
33 2 7
33 3 8
33 4 11
33 5 6
33 6 6
33 7 2
33 8 10
33 9 9
33 10 8
33 11 7
33 12 11
33 13 10
33 14 11
33 15 3
33 16 4
33 17 1
33 18 6
33 19 1
33 20 7
33 21 3
33 22 10
33 23 4
33 24 7
33 25 5
33 26 3
33 27 1
33 28 11
33 29 4
33 30 8
33 31 8
33 32 11
34 0 5
34 1 9
34 2 10
34 3 5
34 4 8
34 5 4
34 6 7
34 7 4
34 8 2
34 9 5
34 10 7
34 11 11
34 12 10
34 13 2
34 14 4
34 15 9
34 16 4
34 17 11
34 18 8
34 19 5
34 20 8
34 21 1
34 22 1
34 23 4
34 24 2
34 25 6
34 26 10
34 27 7
34 28 11
34 29 1
34 30 8
34 31 10
34 32 5
34 33 8
35 0 6
35 1 11
35 2 11
35 3 9
35 4 6
35 5 11
35 6 5
35 7 3
35 8 1
35 9 11
35 10 7
35 11 2
35 12 7
35 13 1
35 14 6
35 15 7
35 16 11
35 17 5
35 18 5
35 19 1
35 20 10
35 21 7
35 22 11
35 23 6
35 24 9
35 25 9
35 26 6
35 27 9
35 28 4
35 29 4
35 30 9
35 31 10
35 32 10
35 33 4
35 34 5
36 0 1
36 1 6
36 2 8
36 3 10
36 4 5
36 5 5
36 6 8
36 7 6
36 8 8
36 9 3
36 10 5
36 11 1
36 12 10
36 13 9
36 14 6
36 15 7
36 16 5
36 17 2
36 18 1
36 19 8
36 20 4
36 21 1
36 22 11
36 23 1
36 24 3
36 25 8
36 26 9
36 27 3
36 28 11
36 29 1
36 30 3
36 31 1
36 32 10
36 33 3
36 34 6
36 35 2
37 0 8
37 1 6
37 2 6
37 3 8
37 4 4
37 5 10
37 6 2
37 7 3
37 8 5
37 9 2
37 10 5
37 11 5
37 12 8
37 13 10
37 14 8
37 15 10
37 16 5
37 17 5
37 18 7
37 19 10
37 20 5
37 21 2
37 22 6
37 23 11
37 24 5
37 25 7
37 26 11
37 27 4
37 28 7
37 29 7
37 30 4
37 31 11
37 32 2
37 33 2
37 34 1
37 35 6
37 36 9
38 0 10
38 1 2
38 2 6
38 3 9
38 4 4
38 5 6
38 6 7
38 7 6
38 8 5
38 9 2
38 10 9
38 11 4
38 12 7
38 13 11
38 14 9
38 15 4
38 16 10
38 17 3
38 18 10
38 19 6
38 20 2
38 21 7
38 22 8
38 23 7
38 24 5
38 25 10
38 26 5
38 27 10
38 28 9
38 29 3
38 30 2
38 31 10
38 32 4
38 33 7
38 34 5
38 35 5
38 36 2
38 37 3
39 0 2
39 1 4
39 2 6
39 3 8
39 4 9
39 5 6
39 6 10
39 7 5
39 8 6
39 9 10
39 10 10
39 11 8
39 12 5
39 13 3
39 14 11
39 15 11
39 16 8
39 17 1
39 18 2
39 19 10
39 20 3
39 21 4
39 22 2
39 23 6
39 24 7
39 25 1
39 26 2
39 27 5
39 28 10
39 29 2
39 30 10
39 31 3
39 32 9
39 33 3
39 34 4
39 35 4
39 36 2
39 37 7
39 38 3
